c 3 - XORSAT
p cnf 30 120
-3 -15 -2 0
-3 15 2 0
3 -15 2 0
3 15 -2 0
6 13 22 0
-6 -13 22 0
-6 13 -22 0
6 -13 -22 0
8 19 28 0
-8 -19 28 0
-8 19 -28 0
8 -19 -28 0
7 11 14 0
-7 -11 14 0
-7 11 -14 0
7 -11 -14 0
7 14 22 0
-7 -14 22 0
-7 14 -22 0
7 -14 -22 0
1 2 20 0
-1 -2 20 0
-1 2 -20 0
1 -2 -20 0
-6 -7 -25 0
-6 7 25 0
6 -7 25 0
6 7 -25 0
-1 -15 -23 0
-1 15 23 0
1 -15 23 0
1 15 -23 0
4 10 18 0
-4 -10 18 0
-4 10 -18 0
4 -10 -18 0
-8 -16 -24 0
-8 16 24 0
8 -16 24 0
8 16 -24 0
11 16 25 0
-11 -16 25 0
-11 16 -25 0
11 -16 -25 0
23 27 29 0
-23 -27 29 0
-23 27 -29 0
23 -27 -29 0
-5 -21 -27 0
-5 21 27 0
5 -21 27 0
5 21 -27 0
2 9 12 0
-2 -9 12 0
-2 9 -12 0
2 -9 -12 0
5 17 28 0
-5 -17 28 0
-5 17 -28 0
5 -17 -28 0
3 4 8 0
-3 -4 8 0
-3 4 -8 0
3 -4 -8 0
-6 -10 -30 0
-6 10 30 0
6 -10 30 0
6 10 -30 0
-25 -27 -28 0
-25 27 28 0
25 -27 28 0
25 27 -28 0
-9 -18 -20 0
-9 18 20 0
9 -18 20 0
9 18 -20 0
19 30 12 0
-19 -30 12 0
-19 30 -12 0
19 -30 -12 0
15 29 30 0
-15 -29 30 0
-15 29 -30 0
15 -29 -30 0
4 9 21 0
-4 -9 21 0
-4 9 -21 0
4 -9 -21 0
1 19 24 0
-1 -19 24 0
-1 19 -24 0
1 -19 -24 0
5 18 21 0
-5 -18 21 0
-5 18 -21 0
5 -18 -21 0
-17 -23 -26 0
-17 23 26 0
17 -23 26 0
17 23 -26 0
20 13 26 0
-20 -13 26 0
-20 13 -26 0
20 -13 -26 0
10 16 26 0
-10 -16 26 0
-10 16 -26 0
10 -16 -26 0
-3 -17 -13 0
-3 17 13 0
3 -17 13 0
3 17 -13 0
-12 -14 -24 0
-12 14 24 0
12 -14 24 0
12 14 -24 0
11 22 29 0
-11 -22 29 0
-11 22 -29 0
11 -22 -29 0
